AES/1_2_8/ssaes_r1-20_c2_rw1_e8_f0_k1-20_aes_min_box_aes_mc_bidirectional/ExperimentMinisat_r7_k4cnf_2011-11-07-134650/Result
WARNING: for repeatability, setting FPU to use double precision
============================[ Problem Statistics ]=============================
|                                                                             |
|  Number of variables:           608                                         |
|  Number of clauses:            7582                                         |
|  Parse time:                   0.01 s                                       |
|  Eliminated clauses:           0.01 Mb                                      |
|  Simplification time:          0.02 s                                       |
|                                                                             |
=============================[ Search Statistics ]==============================
| Conflicts  |          ORIGINAL         |          LEARNT          | Progress |
|            |    Vars  Clauses Literals |    Limit  Clauses Lit/Cl |          |
================================================================================
|        100 |     392     7038    43279 |     2580      100     12 | 14.474 % |
|        250 |     392     7038    43279 |     2838      250     12 | 14.474 % |
|        475 |     392     7038    43279 |     3122      475     12 | 14.474 % |
|        812 |     392     7038    43279 |     3434      812     14 | 14.474 % |
|       1318 |     392     7038    43279 |     3778     1318     15 | 14.474 % |
|       2077 |     392     7038    43279 |     4156     2077     15 | 14.474 % |
|       3216 |     392     7038    43279 |     4571     3216     15 | 14.474 % |
|       4924 |     392     7038    43279 |     5028     2571     15 | 14.474 % |
|       7486 |     392     7038    43279 |     5531     5133     15 | 14.474 % |
|      11330 |     392     7038    43279 |     6084     3259     15 | 14.474 % |
|      17096 |     392     7038    43279 |     6693     5852     15 | 14.474 % |
|      25745 |     392     7038    43279 |     7362     4158     14 | 14.474 % |
|      38719 |     392     7038    43279 |     8099     5807     15 | 14.474 % |
|      58180 |     392     7038    43279 |     8908     4664     14 | 14.474 % |
|      87372 |     392     7038    43279 |     9799     6641     14 | 14.474 % |
|     131161 |     392     7038    43279 |    10779     5629     14 | 14.474 % |
|     196845 |     392     7038    43279 |    11857     5562     13 | 14.474 % |
|     295371 |     392     7038    43279 |    13043     7913     14 | 14.474 % |
|     443160 |     392     7038    43279 |    14347    10384     15 | 14.474 % |
|     664843 |     392     7038    43279 |    15782     7286     14 | 14.474 % |
|     997368 |     392     7038    43279 |    17360    13063     17 | 14.474 % |
|    1496156 |     392     7038    43279 |    19097    12582     14 | 14.474 % |
|    2244338 |     392     7038    43279 |    21006    10005     15 | 14.474 % |
|    3366612 |     392     7038    43279 |    23107    10764     13 | 14.474 % |
|    5050023 |     392     7038    43279 |    25418    19441     17 | 14.474 % |
|    7575139 |     392     7038    43279 |    27960    25231     16 | 14.474 % |
===============================================================================
restarts              : 12789
conflicts             : 7970541        (37286 /sec)
decisions             : 10275840       (0.00 % random) (48070 /sec)
propagations          : 189135825      (884774 /sec)
conflict literals     : 132538141      (7.86 % deleted)
Memory used           : 27.00 MB
CPU time              : 213.768 s

SATISFIABLE
